c A SAT instance generated from a 3-CNF formula that had 28 clauses and 7 variables
p cnf 7 28
6 -1 7 0
3 -7 -1 0
4 -3 6 0
-1 -5 4 0
2 -1 -5 0
-2 -6 5 0
3 5 -2 0
6 -3 7 0
2 -1 3 0
-2 6 -7 0
-3 5 2 0
2 -6 -7 0
5 7 4 0
2 1 7 0
-4 5 3 0
-4 5 1 0
-6 4 -3 0
-1 5 6 0
3 1 7 0
4 -3 6 0
-1 -4 -5 0
-1 5 -4 0
-3 4 -6 0
-4 2 -3 0
-3 -6 -1 0
-6 -3 1 0
2 -3 -7 0
1 5 -7 0
